c 25_3_checker_5cl.cnf
c
c field = 25
c formula set type = 3_checker_5cl
c
p cnf 5 12
18 
78 
108 
-139 
-168 
19 
79 
109 
-138 
-169 
78 
108 
138 
-19 
-168 
79 
109 
139 
-18 
-169 
16 
80 
112 
-145 
-176 
17 
81 
113 
-144 
-177 
80 
112 
144 
-17 
-176 
81 
113 
145 
-16 
-177 
20 
76 
104 
-133 
-160 
21 
77 
105 
-132 
-161 
76 
104 
132 
-21 
-160 
77 
105 
133 
-20 
-161 
